
n_res = 6;
rcap = [51, 57, 50, 55, 627, 798];
rtype = [1, 1, 1, 1, 2, 2];
n_tasks = 50;
modes =  [{1, 2, 3}, {4, 5, 6}, {7, 8, 9}, {10, 11, 12}, {13, 14, 15}, {16, 17, 18}, {19, 20, 21}, {22, 23, 24}, {25, 26, 27}, {28, 29, 30}, {31, 32, 33}, {34, 35, 36}, {37, 38, 39}, {40, 41, 42}, {43, 44, 45}, {46, 47, 48}, {49, 50, 51}, {52, 53, 54}, {55, 56, 57}, {58, 59, 60}, {61, 62, 63}, {64, 65, 66}, {67, 68, 69}, {70, 71, 72}, {73, 74, 75}, {76, 77, 78}, {79, 80, 81}, {82, 83, 84}, {85, 86, 87}, {88, 89, 90}, {91, 92, 93}, {94, 95, 96}, {97, 98, 99}, {100, 101, 102}, {103, 104, 105}, {106, 107, 108}, {109, 110, 111}, {112, 113, 114}, {115, 116, 117}, {118, 119, 120}, {121, 122, 123}, {124, 125, 126}, {127, 128, 129}, {130, 131, 132}, {133, 134, 135}, {136, 137, 138}, {139, 140, 141}, {142, 143, 144}, {145, 146, 147}, {148, 149, 150}];
succ =  [{14, 5, 4}, {14, 5, 4}, {14, 8, 6}, {12, 11, 10, 7}, {22, 11, 8}, {22, 17, 12, 11, 10}, {22, 19, 18, 17, 16, 13}, {17, 12, 10}, {18, 16, 13}, {21, 20, 19, 18, 15}, {18, 13}, {21, 20, 18, 16}, {24, 21, 20, 15}, {16}, {36, 33, 30, 26, 25, 23}, {36, 33, 30, 28, 26, 23}, {36, 34, 33, 32, 30, 26, 25}, {36, 33, 25, 24, 23}, {36, 34, 33, 32, 31, 30, 27}, {36, 34, 33, 32, 27, 25}, {33, 32, 31, 30, 29, 28}, {32, 31, 30, 27}, {34, 32, 31, 29}, {35, 34, 31}, {31, 29}, {27}, {39, 29}, {45, 44, 43, 39, 35}, {37, 35}, {50, 40, 39, 38, 37}, {40, 39, 38, 37}, {50, 40, 38, 37}, {50, 40, 39, 37}, {50, 45, 43, 40, 39, 38}, {50, 41, 40, 38}, {50, 48, 44, 43, 41}, {48, 45, 44, 43, 42}, {48, 47, 46}, {49, 48, 46}, {49, 46}, {42}, {47}, {47}, {46}, {46}, {}, {}, {}, {}, {}];
n_opt = 150;
dur = [8, 18, 19, 11, 21, 29, 25, 27, 29, 9, 15, 27, 18, 22, 23, 17, 18, 26, 8, 21, 27, 19, 20, 22, 1, 18, 21, 7, 18, 26, 4, 7, 28, 4, 14, 15, 20, 27, 30, 14, 22, 25, 18, 20, 28, 8, 9, 14, 6, 7, 24, 10, 15, 25, 7, 14, 22, 6, 8, 24, 6, 14, 21, 3, 10, 14, 6, 12, 16, 9, 13, 18, 4, 21, 24, 14, 15, 20, 7, 10, 11, 2, 12, 20, 2, 26, 29, 9, 23, 27, 8, 12, 29, 5, 11, 22, 10, 22, 25, 8, 10, 16, 9, 10, 15, 2, 3, 4, 3, 6, 25, 7, 8, 20, 9, 21, 29, 2, 5, 15, 4, 17, 28, 21, 28, 29, 6, 7, 13, 3, 24, 30, 11, 14, 19, 3, 9, 22, 13, 23, 29, 4, 8, 28, 4, 7, 13, 2, 5, 19];
rreq = [|23, 17, 16, 27, 21, 18, 17, 9, 5, 17, 10, 7, 27, 25, 24, 18, 8, 2, 7, 5, 3, 13, 12, 12, 21, 21, 17, 26, 20, 18, 5, 3, 2, 13, 10, 5, 19, 18, 18, 11, 7, 3, 8, 5, 4, 26, 11, 8, 22, 21, 17, 27, 18, 12, 25, 24, 19, 25, 18, 4, 8, 5, 4, 27, 22, 17, 9, 8, 7, 15, 12, 11, 13, 11, 9, 20, 19, 19, 9, 9, 9, 21, 13, 4, 25, 24, 16, 15, 12, 6, 10, 6, 6, 23, 17, 8, 26, 23, 15, 25, 18, 8, 26, 22, 17, 29, 22, 14, 17, 8, 7, 9, 9, 7, 8, 5, 4, 23, 21, 20, 27, 18, 17, 17, 13, 12, 18, 14, 3, 21, 14, 10, 22, 18, 17, 13, 7, 4, 17, 7, 3, 16, 11, 5, 26, 26, 26, 28, 28, 28
 |24, 21, 14, 29, 27, 27, 20, 16, 6, 27, 22, 16, 23, 22, 15, 11, 9, 6, 27, 11, 6, 23, 17, 13, 25, 14, 6, 19, 16, 14, 16, 14, 9, 9, 8, 7, 14, 14, 12, 27, 23, 16, 24, 9, 9, 23, 20, 17, 14, 11, 8, 29, 20, 19, 5, 5, 3, 15, 15, 13, 24, 23, 20, 8, 8, 6, 27, 25, 21, 23, 22, 21, 24, 23, 21, 24, 22, 19, 27, 26, 26, 21, 21, 21, 29, 16, 6, 11, 9, 4, 29, 21, 11, 27, 19, 18, 26, 18, 14, 24, 17, 10, 1, 1, 1, 26, 24, 24, 19, 17, 16, 27, 19, 15, 27, 22, 15, 20, 19, 16, 30, 29, 27, 20, 16, 8, 28, 25, 23, 22, 17, 12, 14, 10, 6, 23, 23, 23, 17, 12, 11, 25, 18, 17, 24, 16, 7, 27, 24, 21
 |25, 24, 22, 28, 24, 20, 22, 20, 20, 14, 11, 11, 11, 9, 7, 20, 16, 13, 24, 21, 16, 27, 20, 14, 19, 17, 16, 17, 16, 16, 26, 26, 26, 17, 10, 9, 15, 10, 5, 25, 21, 19, 8, 6, 6, 5, 3, 2, 14, 6, 3, 18, 18, 15, 22, 22, 22, 19, 17, 16, 6, 6, 6, 11, 8, 5, 23, 17, 12, 21, 20, 13, 24, 23, 23, 20, 18, 17, 28, 23, 9, 11, 9, 8, 11, 10, 9, 6, 4, 2, 13, 10, 9, 25, 24, 24, 16, 15, 10, 10, 8, 7, 15, 15, 13, 27, 25, 24, 26, 26, 26, 10, 9, 9, 1, 1, 1, 25, 23, 23, 21, 17, 14, 1, 1, 1, 13, 12, 10, 23, 17, 11, 20, 13, 13, 5, 3, 3, 10, 9, 8, 12, 12, 10, 15, 15, 15, 27, 16, 12
 |15, 14, 10, 12, 10, 6, 25, 24, 20, 25, 24, 20, 21, 11, 8, 29, 28, 27, 26, 25, 25, 24, 19, 14, 15, 13, 12, 20, 13, 11, 7, 3, 1, 10, 8, 8, 28, 25, 22, 23, 17, 9, 20, 15, 10, 23, 21, 18, 6, 5, 5, 12, 11, 10, 25, 18, 17, 22, 16, 8, 23, 18, 14, 13, 10, 9, 22, 16, 10, 21, 20, 13, 19, 11, 8, 30, 29, 27, 24, 14, 12, 13, 10, 8, 11, 11, 11, 17, 14, 11, 22, 21, 17, 20, 20, 18, 26, 21, 20, 15, 14, 14, 21, 12, 10, 14, 14, 14, 6, 5, 5, 21, 16, 14, 10, 9, 9, 28, 22, 11, 13, 10, 9, 11, 8, 4, 6, 4, 3, 16, 11, 11, 5, 5, 3, 28, 28, 27, 12, 11, 8, 22, 22, 14, 8, 4, 4, 5, 5, 4
 |24, 15, 5, 24, 19, 12, 22, 17, 13, 17, 15, 12, 20, 7, 3, 4, 2, 2, 20, 14, 10, 22, 16, 11, 16, 10, 1, 13, 12, 11, 5, 3, 3, 25, 21, 8, 12, 11, 8, 29, 23, 19, 12, 7, 5, 25, 20, 16, 16, 15, 13, 29, 23, 20, 16, 12, 5, 9, 8, 8, 15, 8, 7, 12, 10, 9, 17, 12, 8, 29, 23, 21, 9, 8, 8, 24, 23, 22, 14, 10, 9, 26, 19, 12, 11, 11, 11, 13, 12, 10, 29, 24, 15, 21, 20, 10, 15, 13, 10, 22, 22, 22, 29, 23, 17, 25, 15, 14, 16, 15, 9, 18, 18, 18, 23, 10, 5, 24, 13, 7, 6, 5, 5, 3, 3, 3, 26, 24, 21, 19, 16, 13, 9, 6, 6, 16, 9, 5, 28, 21, 18, 16, 14, 9, 26, 26, 25, 4, 3, 1
 |13, 13, 12, 25, 23, 22, 6, 5, 5, 30, 25, 18, 19, 13, 12, 24, 23, 19, 27, 25, 23, 24, 22, 21, 18, 12, 4, 26, 22, 17, 21, 14, 12, 23, 23, 23, 25, 22, 16, 22, 20, 19, 12, 8, 7, 11, 10, 7, 22, 12, 7, 22, 10, 8, 28, 25, 22, 20, 17, 10, 15, 13, 13, 16, 16, 16, 29, 28, 27, 18, 17, 15, 17, 15, 10, 28, 24, 23, 8, 6, 3, 28, 26, 22, 23, 17, 15, 27, 19, 12, 23, 17, 7, 17, 13, 10, 27, 27, 25, 24, 21, 19, 9, 7, 6, 11, 10, 10, 15, 11, 11, 26, 23, 21, 27, 26, 25, 22, 17, 15, 26, 19, 7, 27, 17, 12, 24, 23, 22, 26, 24, 21, 13, 13, 12, 21, 16, 5, 22, 19, 14, 10, 8, 4, 22, 13, 12, 25, 21, 18|];